benchmark/results/graph__10-1000-0.10-03_2/graph__10-1000-0.10-03_2_QuintonOs_Benders_aux.lp
\ This file has been generated by DOcplex
\ ENCODING=ISO-8859-1
\Problem name: Quinton Bounded Benders_auxiliary_sub

Minimize
 obj: 0.001312335958 pi_nr_a0 + 0.001339455028 pi_nr_a1
      + 0.002003883508 pi_nr_a2 + 0.001464113509 pi_nr_a3
      + 0.000996262188 pi_nr_a4 + 0.001269016171 pi_nr_a5
      + 0.001046155252 pi_nr_a6 + 0.001133786848 pi_nr_a7
      + 0.001010895212 pi_nr_a8 + 0.000937868988 pi_nr_a9 + pi_p_a2_a1
      + pi_p_a3_a0 + pi_p_a2_a6 + pi_p_a2_a3 + pi_p_a3_a5 + pi_p_a8_a9
      + 1307.000001049238 pi_d_a0_a1_proc_2
      + 2597.438749786455 pi_d_a0_a1_proc_0
      + 1310.561249134843 pi_d_a0_a1_proc_1
      + 1282.000001068880 pi_d_a1_a0_proc_2
      + 2572.438749806097 pi_d_a1_a0_proc_0
      + 1285.561249154486 pi_d_a1_a0_proc_1
      + 1306.829546149212 pi_d_a0_a2_proc_2
      + 1307.167064070021 pi_d_a0_a2_proc_0
      + 1281.832936989038 pi_d_a2_a0_proc_2
      + 1282.170454909847 pi_d_a2_a0_proc_0
      + 1282.070238188906 pi_d_a0_a3_proc_0
      + 2575.941967762936 pi_d_a0_a3_proc_1
      + 1307.058031178005 pi_d_a3_a0_proc_0
      + 2600.929760752034 pi_d_a3_a0_proc_1 + 243.556825547266 pi_d_a0_a4_proc_2
      + 2521.789323209591 pi_d_a0_a4_proc_0
      + 2417.921422872805 pi_d_a0_a4_proc_1 + 239.711777794158 pi_d_a4_a0_proc_2
      + 2517.944275456483 pi_d_a4_a0_proc_0
      + 2414.076375119697 pi_d_a4_a0_proc_1
      + 1306.876645024371 pi_d_a0_a5_proc_2
      + 1307.064292567149 pi_d_a0_a5_proc_0
      + 1281.935708491910 pi_d_a5_a0_proc_2
      + 1282.123356034688 pi_d_a5_a0_proc_0
      + 1087.873642232810 pi_d_a0_a6_proc_2
      + 1521.767302448180 pi_d_a0_a6_proc_1
      + 1067.232697551820 pi_d_a6_a0_proc_2
      + 1501.126357767191 pi_d_a6_a0_proc_1
      + 1307.000001048420 pi_d_a0_a7_proc_2
      + 1306.999998930301 pi_d_a0_a7_proc_1
      + 1282.000001069699 pi_d_a7_a0_proc_2
      + 1281.999998951581 pi_d_a7_a0_proc_1
      + 1067.313158100927 pi_d_a0_a8_proc_2
      + 1548.668094930336 pi_d_a0_a8_proc_0
      + 2596.651526357426 pi_d_a0_a8_proc_1
      + 1043.891305175134 pi_d_a8_a0_proc_2
      + 1525.246242004544 pi_d_a8_a0_proc_0
      + 2573.229673431634 pi_d_a8_a0_proc_1 + 291.854616593745 pi_d_a0_a9_proc_2
      + 2337.692842737146 pi_d_a0_a9_proc_0
      + 2542.871472151176 pi_d_a0_a9_proc_1 + 295.241995605700 pi_d_a9_a0_proc_2
      + 2341.080221749101 pi_d_a9_a0_proc_0
      + 2546.258851163132 pi_d_a9_a0_proc_1
      + 2600.795472179967 pi_d_a1_a2_proc_2
      + 1303.571740956113 pi_d_a1_a2_proc_0
      + 2575.867008840164 pi_d_a2_a1_proc_2
      + 1278.643277616310 pi_d_a2_a1_proc_0
      + 1281.860553914446 pi_d_a1_a3_proc_0
      + 1288.854784954980 pi_d_a1_a3_proc_1
      + 1300.145215045020 pi_d_a3_a1_proc_0
      + 1307.139446085554 pi_d_a3_a1_proc_1
      + 1546.378280851759 pi_d_a1_a4_proc_2
      + 2527.049529369420 pi_d_a1_a4_proc_0
      + 1136.304130499138 pi_d_a1_a4_proc_1
      + 1524.890320371547 pi_d_a4_a1_proc_2
      + 2505.561568889209 pi_d_a4_a1_proc_0
      + 1114.816170018927 pi_d_a4_a1_proc_1
      + 2600.874417389621 pi_d_a1_a5_proc_2
      + 1303.500815787736 pi_d_a1_a5_proc_0
      + 2575.937934008541 pi_d_a5_a1_proc_2
      + 1278.564332406655 pi_d_a5_a1_proc_0
      + 2373.236735850573 pi_d_a1_a6_proc_2 + 222.691648387784 pi_d_a1_a6_proc_1
      + 2369.869601815939 pi_d_a6_a1_proc_2 + 219.324514353151 pi_d_a6_a1_proc_1
      + 2588.035777629558 pi_d_a1_a7_proc_2 + 3.597027833281 pi_d_a1_a7_proc_1
      + 2588.964222370442 pi_d_a7_a1_proc_2 + 4.525472574165 pi_d_a7_a1_proc_1
      + 2362.102117329360 pi_d_a1_a8_proc_2
      + 1545.895805014106 pi_d_a1_a8_proc_0
      + 1307.001737907701 pi_d_a1_a8_proc_1
      + 2337.102343828582 pi_d_a8_a1_proc_2
      + 1520.896031513328 pi_d_a8_a1_proc_0
      + 1282.001964406923 pi_d_a8_a1_proc_1
      + 1578.579907038117 pi_d_a1_a9_proc_2
      + 2326.856884036855 pi_d_a1_a9_proc_0
      + 1245.158014917390 pi_d_a1_a9_proc_1
      + 1596.516703043209 pi_d_a9_a1_proc_2
      + 2344.793680041947 pi_d_a9_a1_proc_0
      + 1263.094810922482 pi_d_a9_a1_proc_1 + 1.235045349724 pi_d_a2_a3_proc_0
      + 0.230742997057 pi_d_a3_a2_proc_0 + 1547.327592905269 pi_d_a2_a4_proc_2
      + 1237.897610606522 pi_d_a2_a4_proc_0
      + 1523.603489338169 pi_d_a4_a2_proc_2
      + 1214.173507039422 pi_d_a4_a2_proc_0
      + 2589.732797462788 pi_d_a2_a5_proc_2 + 2.257965044495 pi_d_a2_a5_proc_0
      + 2586.742034955505 pi_d_a5_a2_proc_2 - 0.732797462788 pi_d_a5_a2_proc_0
      + 2383.882852923392 pi_d_a2_a6_proc_2
      + 2358.885965763250 pi_d_a6_a2_proc_2
      + 2600.831240510066 pi_d_a2_a7_proc_2
      + 2575.831240510066 pi_d_a7_a2_proc_2
      + 2353.683471086017 pi_d_a2_a8_proc_2 + 247.375927954355 pi_d_a2_a8_proc_0
      + 2345.183471092056 pi_d_a8_a2_proc_2 + 238.875927960394 pi_d_a8_a2_proc_0
      + 1599.359453670061 pi_d_a2_a9_proc_2
      + 1057.535199852391 pi_d_a2_a9_proc_0
      + 1575.399637431397 pi_d_a9_a2_proc_2
      + 1033.575383613726 pi_d_a9_a2_proc_0
      + 1237.741419617219 pi_d_a3_a4_proc_0
      + 2427.745250972579 pi_d_a3_a4_proc_1
      + 1214.120448415768 pi_d_a4_a3_proc_0
      + 2404.124279771128 pi_d_a4_a3_proc_1 + 1.159285235400 pi_d_a3_a5_proc_0
      + 0.156632733350 pi_d_a5_a3_proc_0 + 1523.876733932651 pi_d_a3_a6_proc_1
      + 1498.888659033926 pi_d_a6_a3_proc_1
      + 1285.284444986050 pi_d_a3_a7_proc_1
      + 1303.587285647038 pi_d_a7_a3_proc_1 + 247.207344270207 pi_d_a3_a8_proc_0
      + 2589.062507389443 pi_d_a3_a8_proc_1 + 238.835262031585 pi_d_a8_a3_proc_0
      + 2580.690425150821 pi_d_a8_a3_proc_1
      + 1056.264473451444 pi_d_a3_a9_proc_0
      + 2555.314834557621 pi_d_a3_a9_proc_1
      + 1034.636860401716 pi_d_a9_a3_proc_0
      + 2533.687221507892 pi_d_a9_a3_proc_1
      + 1544.104150944180 pi_d_a4_a5_proc_2
      + 1234.524298267403 pi_d_a4_a5_proc_0
      + 1526.976801677288 pi_d_a5_a4_proc_2
      + 1217.396949000511 pi_d_a5_a4_proc_0
      + 1331.172714195535 pi_d_a4_a6_proc_2
      + 1351.430975972680 pi_d_a4_a6_proc_1
      + 1306.202224694283 pi_d_a6_a4_proc_2
      + 1326.460486471428 pi_d_a6_a4_proc_1
      + 1546.534599530249 pi_d_a4_a7_proc_2
      + 1132.899198973906 pi_d_a4_a7_proc_1
      + 1524.734001693057 pi_d_a7_a4_proc_2
      + 1111.098601136713 pi_d_a7_a4_proc_1
      + 1284.272190719068 pi_d_a4_a8_proc_2
      + 1455.859627328922 pi_d_a4_a8_proc_0
      + 2399.975160537342 pi_d_a4_a8_proc_1
      + 1309.200871662180 pi_d_a8_a4_proc_2
      + 1480.788308272035 pi_d_a8_a4_proc_0
      + 2424.903841480454 pi_d_a8_a4_proc_1 + 536.557433130400 pi_d_a4_a9_proc_2
      + 2272.628159054246 pi_d_a4_a9_proc_0
      + 2373.938890249606 pi_d_a4_a9_proc_1 + 532.807778174232 pi_d_a9_a4_proc_2
      + 2268.878504098078 pi_d_a9_a4_proc_0
      + 2370.189235293438 pi_d_a9_a4_proc_1
      + 2383.959244968366 pi_d_a5_a6_proc_2
      + 2358.959444096308 pi_d_a6_a5_proc_2
      + 2600.906175699081 pi_d_a5_a7_proc_2
      + 2575.906175699081 pi_d_a7_a5_proc_2
      + 2352.660810369164 pi_d_a5_a8_proc_2 + 246.203396859471 pi_d_a5_a8_proc_0
      + 2346.356002186940 pi_d_a8_a5_proc_2 + 239.898588677248 pi_d_a8_a5_proc_0
      + 1599.567504507213 pi_d_a5_a9_proc_2
      + 1057.593380311512 pi_d_a5_a9_proc_0
      + 1575.341456972276 pi_d_a9_a5_proc_2
      + 1033.367332776575 pi_d_a9_a5_proc_0
      + 2374.064277589321 pi_d_a6_a7_proc_2 + 219.957939922810 pi_d_a6_a7_proc_1
      + 2369.042060077190 pi_d_a7_a6_proc_2 + 214.935722410679 pi_d_a7_a6_proc_1
      + 2144.587777064652 pi_d_a6_a8_proc_2
      + 1519.819809772758 pi_d_a6_a8_proc_1
      + 2120.723021759802 pi_d_a8_a6_proc_2
      + 1495.955054467908 pi_d_a8_a6_proc_1
      + 1361.775911008473 pi_d_a6_a9_proc_2
      + 1458.686431017511 pi_d_a6_a9_proc_1
      + 1379.427036739365 pi_d_a9_a6_proc_2
      + 1476.337556748403 pi_d_a9_a6_proc_1
      + 2337.152058972813 pi_d_a7_a8_proc_2
      + 1278.490429347431 pi_d_a7_a8_proc_1
      + 2362.052402185129 pi_d_a8_a7_proc_2
      + 1303.390772559746 pi_d_a8_a7_proc_1
      + 1594.769966165549 pi_d_a7_a9_proc_2
      + 1257.786823841099 pi_d_a7_a9_proc_1
      + 1580.326643915777 pi_d_a9_a7_proc_2
      + 1243.343501591327 pi_d_a9_a7_proc_1
      + 1360.085039555926 pi_d_a8_a9_proc_2
      + 1299.278204646857 pi_d_a8_a9_proc_0
      + 2552.440267606093 pi_d_a8_a9_proc_1
      + 1337.216031683342 pi_d_a9_a8_proc_2
      + 1276.409196774273 pi_d_a9_a8_proc_0
      + 2529.571259733509 pi_d_a9_a8_proc_1 + 0.000000000000 pi_y2_a0_proc_0
      + 0.000000000818 pi_y2_a0_proc_1 + 0.999999999182 pi_y2_a0_proc_2
      + 0.002752125351 pi_y2_a1_proc_0 + 0.997247874649 pi_y2_a1_proc_1
      + 0.000000000000 pi_y2_a1_proc_2 + 0.999869583084 pi_y2_a2_proc_0
      + 0.000130416916 pi_y2_a2_proc_2 + 0.999950436875 pi_y2_a3_proc_0
      + 0.000049563125 pi_y2_a3_proc_1 + 0.053039567749 pi_y2_a4_proc_0
      + 0.133308423450 pi_y2_a4_proc_1 + 0.813652008801 pi_y2_a4_proc_2
      + 0.999927492812 pi_y2_a5_proc_0 + 0.000072507188 pi_y2_a5_proc_2
      + 0.832344025373 pi_y2_a6_proc_1 + 0.167655974627 pi_y2_a6_proc_2
      + pi_y2_a7_proc_1 + 0.000000000000 pi_y2_a7_proc_2
      + 0.812629699793 pi_y2_a8_proc_0 + 0.002750694781 pi_y2_a8_proc_1
      + 0.184619605426 pi_y2_a8_proc_2 + 0.192514271837 pi_y2_a9_proc_0
      + 0.033952733604 pi_y2_a9_proc_1 + 0.773532994559 pi_y2_a9_proc_2
Subject To
 c1: 0.001312335958 pi_nr_a0 + 0.001340482574 pi_nr_a1 + 0.002004008016 pi_nr_a2
     + 0.001464128843 pi_nr_a3 + 0.001020408163 pi_nr_a4
     + 0.001269035533 pi_nr_a5 + 0.001006036217 pi_nr_a6
     + 0.001133786848 pi_nr_a7 + 0.001008064516 pi_nr_a8
     + 0.000961538462 pi_nr_a9 + pi_p_a2_a1 + pi_p_a3_a0 + pi_p_a2_a6
     + pi_p_a2_a3 + pi_p_a3_a5 + pi_p_a8_a9 + 1307 pi_d_a0_a1_proc_2
     + 2601 pi_d_a0_a1_proc_0 + 1307 pi_d_a0_a1_proc_1 + 1282 pi_d_a1_a0_proc_2
     + 2576 pi_d_a1_a0_proc_0 + 1282 pi_d_a1_a0_proc_1 + 1307 pi_d_a0_a2_proc_2
     + 1307 pi_d_a0_a2_proc_0 + 1282 pi_d_a2_a0_proc_2 + 1282 pi_d_a2_a0_proc_0
     + 1282 pi_d_a0_a3_proc_0 + 2576 pi_d_a0_a3_proc_1 + 1307 pi_d_a3_a0_proc_0
     + 2601 pi_d_a3_a0_proc_1 + 2588 pi_d_a0_a4_proc_0 + 2588 pi_d_a0_a4_proc_1
     + pi_d_a4_a0_proc_2 + 2589 pi_d_a4_a0_proc_0 + 2589 pi_d_a4_a0_proc_1
     + 1307 pi_d_a0_a5_proc_2 + 1307 pi_d_a0_a5_proc_0 + 1282 pi_d_a5_a0_proc_2
     + 1282 pi_d_a5_a0_proc_0 + 1307 pi_d_a0_a6_proc_2 + 1307 pi_d_a0_a6_proc_1
     + 1282 pi_d_a6_a0_proc_2 + 1282 pi_d_a6_a0_proc_1 + 1307 pi_d_a0_a7_proc_2
     + 1307 pi_d_a0_a7_proc_1 + 1282 pi_d_a7_a0_proc_2 + 1282 pi_d_a7_a0_proc_1
     + 1307 pi_d_a0_a8_proc_2 + 1307 pi_d_a0_a8_proc_0 + 2601 pi_d_a0_a8_proc_1
     + 1282 pi_d_a8_a0_proc_2 + 1282 pi_d_a8_a0_proc_0 + 2576 pi_d_a8_a0_proc_1
     + 2 pi_d_a0_a9_proc_2 + 2590 pi_d_a0_a9_proc_0 + 2590 pi_d_a0_a9_proc_1
     - pi_d_a9_a0_proc_2 + 2587 pi_d_a9_a0_proc_0 + 2587 pi_d_a9_a0_proc_1
     + 2601 pi_d_a1_a2_proc_2 + 1307 pi_d_a1_a2_proc_0 + 2576 pi_d_a2_a1_proc_2
     + 1282 pi_d_a2_a1_proc_0 + 1282 pi_d_a1_a3_proc_0 + 1282 pi_d_a1_a3_proc_1
     + 1307 pi_d_a3_a1_proc_0 + 1307 pi_d_a3_a1_proc_1 + 1307 pi_d_a1_a4_proc_2
     + 2601 pi_d_a1_a4_proc_0 + 1307 pi_d_a1_a4_proc_1 + 1282 pi_d_a4_a1_proc_2
     + 2576 pi_d_a4_a1_proc_0 + 1282 pi_d_a4_a1_proc_1 + 2601 pi_d_a1_a5_proc_2
     + 1307 pi_d_a1_a5_proc_0 + 2576 pi_d_a5_a1_proc_2 + 1282 pi_d_a5_a1_proc_0
     + 2588 pi_d_a1_a6_proc_2 + 2589 pi_d_a6_a1_proc_2 + pi_d_a6_a1_proc_1
     + 2588 pi_d_a1_a7_proc_2 + 2589 pi_d_a7_a1_proc_2 + pi_d_a7_a1_proc_1
     + 2601 pi_d_a1_a8_proc_2 + 1307 pi_d_a1_a8_proc_0 + 1307 pi_d_a1_a8_proc_1
     + 2576 pi_d_a8_a1_proc_2 + 1282 pi_d_a8_a1_proc_0 + 1282 pi_d_a8_a1_proc_1
     + 1282 pi_d_a1_a9_proc_2 + 2576 pi_d_a1_a9_proc_0 + 1282 pi_d_a1_a9_proc_1
     + 1307 pi_d_a9_a1_proc_2 + 2601 pi_d_a9_a1_proc_0 + 1307 pi_d_a9_a1_proc_1
     + pi_d_a2_a3_proc_0 + 1307 pi_d_a2_a4_proc_2 + 1307 pi_d_a2_a4_proc_0
     + 1282 pi_d_a4_a2_proc_2 + 1282 pi_d_a4_a2_proc_0 + 2590 pi_d_a2_a5_proc_2
     + 2 pi_d_a2_a5_proc_0 + 2587 pi_d_a5_a2_proc_2 - pi_d_a5_a2_proc_0
     + 2601 pi_d_a2_a6_proc_2 + 2576 pi_d_a6_a2_proc_2 + 2601 pi_d_a2_a7_proc_2
     + 2576 pi_d_a7_a2_proc_2 + 2590 pi_d_a2_a8_proc_2 + 2 pi_d_a2_a8_proc_0
     + 2587 pi_d_a8_a2_proc_2 - pi_d_a8_a2_proc_0 + 1307 pi_d_a2_a9_proc_2
     + 1307 pi_d_a2_a9_proc_0 + 1282 pi_d_a9_a2_proc_2 + 1282 pi_d_a9_a2_proc_0
     + 1307 pi_d_a3_a4_proc_0 + 2601 pi_d_a3_a4_proc_1 + 1282 pi_d_a4_a3_proc_0
     + 2576 pi_d_a4_a3_proc_1 + pi_d_a3_a5_proc_0 + 1307 pi_d_a3_a6_proc_1
     + 1282 pi_d_a6_a3_proc_1 + 1282 pi_d_a3_a7_proc_1 + 1307 pi_d_a7_a3_proc_1
     + 2 pi_d_a3_a8_proc_0 + 2590 pi_d_a3_a8_proc_1 - pi_d_a8_a3_proc_0
     + 2587 pi_d_a8_a3_proc_1 + 1307 pi_d_a3_a9_proc_0 + 2601 pi_d_a3_a9_proc_1
     + 1282 pi_d_a9_a3_proc_0 + 2576 pi_d_a9_a3_proc_1 + 1307 pi_d_a4_a5_proc_2
     + 1307 pi_d_a4_a5_proc_0 + 1282 pi_d_a5_a4_proc_2 + 1282 pi_d_a5_a4_proc_0
     + 1307 pi_d_a4_a6_proc_2 + 1307 pi_d_a4_a6_proc_1 + 1282 pi_d_a6_a4_proc_2
     + 1282 pi_d_a6_a4_proc_1 + 1307 pi_d_a4_a7_proc_2 + 1307 pi_d_a4_a7_proc_1
     + 1282 pi_d_a7_a4_proc_2 + 1282 pi_d_a7_a4_proc_1 + 1282 pi_d_a4_a8_proc_2
     + 1282 pi_d_a4_a8_proc_0 + 2576 pi_d_a4_a8_proc_1 + 1307 pi_d_a8_a4_proc_2
     + 1307 pi_d_a8_a4_proc_0 + 2601 pi_d_a8_a4_proc_1 + 2 pi_d_a4_a9_proc_2
     + 2590 pi_d_a4_a9_proc_0 + 2590 pi_d_a4_a9_proc_1 - pi_d_a9_a4_proc_2
     + 2587 pi_d_a9_a4_proc_0 + 2587 pi_d_a9_a4_proc_1 + 2601 pi_d_a5_a6_proc_2
     + 2576 pi_d_a6_a5_proc_2 + 2601 pi_d_a5_a7_proc_2 + 2576 pi_d_a7_a5_proc_2
     + 2589 pi_d_a5_a8_proc_2 + pi_d_a5_a8_proc_0 + 2588 pi_d_a8_a5_proc_2
     + 1307 pi_d_a5_a9_proc_2 + 1307 pi_d_a5_a9_proc_0 + 1282 pi_d_a9_a5_proc_2
     + 1282 pi_d_a9_a5_proc_0 + 2589 pi_d_a6_a7_proc_2 + pi_d_a6_a7_proc_1
     + 2588 pi_d_a7_a6_proc_2 + 2601 pi_d_a6_a8_proc_2 + 1307 pi_d_a6_a8_proc_1
     + 2576 pi_d_a8_a6_proc_2 + 1282 pi_d_a8_a6_proc_1 + 1282 pi_d_a6_a9_proc_2
     + 1282 pi_d_a6_a9_proc_1 + 1307 pi_d_a9_a6_proc_2 + 1307 pi_d_a9_a6_proc_1
     + 2576 pi_d_a7_a8_proc_2 + 1282 pi_d_a7_a8_proc_1 + 2601 pi_d_a8_a7_proc_2
     + 1307 pi_d_a8_a7_proc_1 + 1307 pi_d_a7_a9_proc_2 + 1307 pi_d_a7_a9_proc_1
     + 1282 pi_d_a9_a7_proc_2 + 1282 pi_d_a9_a7_proc_1 + 1307 pi_d_a8_a9_proc_2
     + 1307 pi_d_a8_a9_proc_0 + 2601 pi_d_a8_a9_proc_1 + 1282 pi_d_a9_a8_proc_2
     + 1282 pi_d_a9_a8_proc_0 + 2576 pi_d_a9_a8_proc_1 + pi_y2_a0_proc_2
     + pi_y2_a1_proc_1 + pi_y2_a2_proc_0 + pi_y2_a3_proc_0 + pi_y2_a4_proc_2
     + pi_y2_a5_proc_0 + pi_y2_a6_proc_1 + pi_y2_a7_proc_1 + pi_y2_a8_proc_0
     + pi_y2_a9_proc_2 = 0.000257532835
 c2: pi_nr_a0 + pi_nr_a1 + pi_nr_a2 + pi_nr_a3 + pi_nr_a4 + pi_nr_a5 + pi_nr_a6
     + pi_nr_a7 + pi_nr_a8 + pi_nr_a9 - pi_y1_a0 - pi_y1_a1 - pi_y1_a2
     - pi_y1_a3 - pi_y1_a4 - pi_y1_a5 - pi_y1_a6 - pi_y1_a7 - pi_y1_a8
     - pi_y1_a9 >= 1
 c3: - pi_p_a1_a0 - pi_p_a3_a0 + pi_p_a0_a2 + pi_p_a0_a7 + pi_p_a0_a6
     + pi_d_a0_a1_proc_2 + pi_d_a0_a1_proc_0 + pi_d_a0_a1_proc_1
     - pi_d_a1_a0_proc_2 - pi_d_a1_a0_proc_0 - pi_d_a1_a0_proc_1
     + pi_d_a0_a2_proc_2 + pi_d_a0_a2_proc_0 - pi_d_a2_a0_proc_2
     - pi_d_a2_a0_proc_0 + pi_d_a0_a3_proc_0 + pi_d_a0_a3_proc_1
     - pi_d_a3_a0_proc_0 - pi_d_a3_a0_proc_1 + pi_d_a0_a4_proc_2
     + pi_d_a0_a4_proc_0 + pi_d_a0_a4_proc_1 - pi_d_a4_a0_proc_2
     - pi_d_a4_a0_proc_0 - pi_d_a4_a0_proc_1 + pi_d_a0_a5_proc_2
     + pi_d_a0_a5_proc_0 - pi_d_a5_a0_proc_2 - pi_d_a5_a0_proc_0
     + pi_d_a0_a6_proc_2 + pi_d_a0_a6_proc_1 - pi_d_a6_a0_proc_2
     - pi_d_a6_a0_proc_1 + pi_d_a0_a7_proc_2 + pi_d_a0_a7_proc_1
     - pi_d_a7_a0_proc_2 - pi_d_a7_a0_proc_1 + pi_d_a0_a8_proc_2
     + pi_d_a0_a8_proc_0 + pi_d_a0_a8_proc_1 - pi_d_a8_a0_proc_2
     - pi_d_a8_a0_proc_0 - pi_d_a8_a0_proc_1 + pi_d_a0_a9_proc_2
     + pi_d_a0_a9_proc_0 + pi_d_a0_a9_proc_1 - pi_d_a9_a0_proc_2
     - pi_d_a9_a0_proc_0 - pi_d_a9_a0_proc_1 >= 0
 c4: 1294 pi_p_a0_a2 + 1294 pi_p_a0_a7 + 1294 pi_p_a0_a6
     + 1294 pi_d_a0_a1_proc_0 + 1294 pi_d_a0_a2_proc_0 + 1294 pi_d_a0_a3_proc_0
     + 1294 pi_d_a0_a4_proc_0 + 1294 pi_d_a0_a5_proc_0 + 1294 pi_d_a0_a8_proc_0
     + 1294 pi_d_a0_a9_proc_0 + pi_y1_a0 + pi_y2_a0_proc_0 >= 0
 c5: 855 pi_p_a0_a2 + 855 pi_p_a0_a7 + 855 pi_p_a0_a6 + 855 pi_d_a0_a1_proc_1
     + 855 pi_d_a0_a3_proc_1 + 855 pi_d_a0_a4_proc_1 + 855 pi_d_a0_a6_proc_1
     + 855 pi_d_a0_a7_proc_1 + 855 pi_d_a0_a8_proc_1 + 855 pi_d_a0_a9_proc_1
     + pi_y1_a0 + pi_y2_a0_proc_1 >= 0
 c6: 762 pi_p_a0_a2 + 762 pi_p_a0_a7 + 762 pi_p_a0_a6 + 762 pi_d_a0_a1_proc_2
     + 762 pi_d_a0_a2_proc_2 + 762 pi_d_a0_a4_proc_2 + 762 pi_d_a0_a5_proc_2
     + 762 pi_d_a0_a6_proc_2 + 762 pi_d_a0_a7_proc_2 + 762 pi_d_a0_a8_proc_2
     + 762 pi_d_a0_a9_proc_2 + pi_y1_a0 + pi_y2_a0_proc_2 >= 0
 c7: pi_p_a1_a0 - pi_p_a2_a1 - pi_p_a5_a1 - pi_d_a0_a1_proc_2
     - pi_d_a0_a1_proc_0 - pi_d_a0_a1_proc_1 + pi_d_a1_a0_proc_2
     + pi_d_a1_a0_proc_0 + pi_d_a1_a0_proc_1 + pi_d_a1_a2_proc_2
     + pi_d_a1_a2_proc_0 - pi_d_a2_a1_proc_2 - pi_d_a2_a1_proc_0
     + pi_d_a1_a3_proc_0 + pi_d_a1_a3_proc_1 - pi_d_a3_a1_proc_0
     - pi_d_a3_a1_proc_1 + pi_d_a1_a4_proc_2 + pi_d_a1_a4_proc_0
     + pi_d_a1_a4_proc_1 - pi_d_a4_a1_proc_2 - pi_d_a4_a1_proc_0
     - pi_d_a4_a1_proc_1 + pi_d_a1_a5_proc_2 + pi_d_a1_a5_proc_0
     - pi_d_a5_a1_proc_2 - pi_d_a5_a1_proc_0 + pi_d_a1_a6_proc_2
     + pi_d_a1_a6_proc_1 - pi_d_a6_a1_proc_2 - pi_d_a6_a1_proc_1
     + pi_d_a1_a7_proc_2 + pi_d_a1_a7_proc_1 - pi_d_a7_a1_proc_2
     - pi_d_a7_a1_proc_1 + pi_d_a1_a8_proc_2 + pi_d_a1_a8_proc_0
     + pi_d_a1_a8_proc_1 - pi_d_a8_a1_proc_2 - pi_d_a8_a1_proc_0
     - pi_d_a8_a1_proc_1 + pi_d_a1_a9_proc_2 + pi_d_a1_a9_proc_0
     + pi_d_a1_a9_proc_1 - pi_d_a9_a1_proc_2 - pi_d_a9_a1_proc_0
     - pi_d_a9_a1_proc_1 >= 0
 c8: 1034 pi_p_a1_a0 + 1034 pi_d_a1_a0_proc_0 + 1034 pi_d_a1_a2_proc_0
     + 1034 pi_d_a1_a3_proc_0 + 1034 pi_d_a1_a4_proc_0 + 1034 pi_d_a1_a5_proc_0
     + 1034 pi_d_a1_a8_proc_0 + 1034 pi_d_a1_a9_proc_0 + pi_y1_a1
     + pi_y2_a1_proc_0 >= 0
 c9: 746 pi_p_a1_a0 + 746 pi_d_a1_a0_proc_1 + 746 pi_d_a1_a3_proc_1
     + 746 pi_d_a1_a4_proc_1 + 746 pi_d_a1_a6_proc_1 + 746 pi_d_a1_a7_proc_1
     + 746 pi_d_a1_a8_proc_1 + 746 pi_d_a1_a9_proc_1 + pi_y1_a1
     + pi_y2_a1_proc_1 >= 0
 c10: 1247 pi_p_a1_a0 + 1247 pi_d_a1_a0_proc_2 + 1247 pi_d_a1_a2_proc_2
      + 1247 pi_d_a1_a4_proc_2 + 1247 pi_d_a1_a5_proc_2 + 1247 pi_d_a1_a6_proc_2
      + 1247 pi_d_a1_a7_proc_2 + 1247 pi_d_a1_a8_proc_2 + 1247 pi_d_a1_a9_proc_2
      + pi_y1_a1 + pi_y2_a1_proc_2 >= 0
 c11: pi_p_a2_a1 - pi_p_a4_a2 + pi_p_a2_a6 + pi_p_a2_a3 - pi_p_a6_a2
      - pi_p_a0_a2 - pi_d_a0_a2_proc_2 - pi_d_a0_a2_proc_0 + pi_d_a2_a0_proc_2
      + pi_d_a2_a0_proc_0 - pi_d_a1_a2_proc_2 - pi_d_a1_a2_proc_0
      + pi_d_a2_a1_proc_2 + pi_d_a2_a1_proc_0 + pi_d_a2_a3_proc_0
      - pi_d_a3_a2_proc_0 + pi_d_a2_a4_proc_2 + pi_d_a2_a4_proc_0
      - pi_d_a4_a2_proc_2 - pi_d_a4_a2_proc_0 + pi_d_a2_a5_proc_2
      + pi_d_a2_a5_proc_0 - pi_d_a5_a2_proc_2 - pi_d_a5_a2_proc_0
      + pi_d_a2_a6_proc_2 - pi_d_a6_a2_proc_2 + pi_d_a2_a7_proc_2
      - pi_d_a7_a2_proc_2 + pi_d_a2_a8_proc_2 + pi_d_a2_a8_proc_0
      - pi_d_a8_a2_proc_2 - pi_d_a8_a2_proc_0 + pi_d_a2_a9_proc_2
      + pi_d_a2_a9_proc_0 - pi_d_a9_a2_proc_2 - pi_d_a9_a2_proc_0 >= 0
 c12: 499 pi_p_a2_a1 + 499 pi_p_a2_a6 + 499 pi_p_a2_a3 + 499 pi_d_a2_a0_proc_0
      + 499 pi_d_a2_a1_proc_0 + 499 pi_d_a2_a3_proc_0 + 499 pi_d_a2_a4_proc_0
      + 499 pi_d_a2_a5_proc_0 + 499 pi_d_a2_a8_proc_0 + 499 pi_d_a2_a9_proc_0
      + pi_y1_a2 + pi_y2_a2_proc_0 >= 0
 c13: 953 pi_p_a2_a1 + 953 pi_p_a2_a6 + 953 pi_p_a2_a3 + 953 pi_d_a2_a0_proc_2
      + 953 pi_d_a2_a1_proc_2 + 953 pi_d_a2_a4_proc_2 + 953 pi_d_a2_a5_proc_2
      + 953 pi_d_a2_a6_proc_2 + 953 pi_d_a2_a7_proc_2 + 953 pi_d_a2_a8_proc_2
      + 953 pi_d_a2_a9_proc_2 + pi_y1_a2 + pi_y2_a2_proc_2 >= 0
 c14: pi_p_a3_a0 - pi_p_a8_a3 - pi_p_a2_a3 + pi_p_a3_a5 + pi_p_a3_a4
      - pi_d_a0_a3_proc_0 - pi_d_a0_a3_proc_1 + pi_d_a3_a0_proc_0
      + pi_d_a3_a0_proc_1 - pi_d_a1_a3_proc_0 - pi_d_a1_a3_proc_1
      + pi_d_a3_a1_proc_0 + pi_d_a3_a1_proc_1 - pi_d_a2_a3_proc_0
      + pi_d_a3_a2_proc_0 + pi_d_a3_a4_proc_0 + pi_d_a3_a4_proc_1
      - pi_d_a4_a3_proc_0 - pi_d_a4_a3_proc_1 + pi_d_a3_a5_proc_0
      - pi_d_a5_a3_proc_0 + pi_d_a3_a6_proc_1 - pi_d_a6_a3_proc_1
      + pi_d_a3_a7_proc_1 - pi_d_a7_a3_proc_1 + pi_d_a3_a8_proc_0
      + pi_d_a3_a8_proc_1 - pi_d_a8_a3_proc_0 - pi_d_a8_a3_proc_1
      + pi_d_a3_a9_proc_0 + pi_d_a3_a9_proc_1 - pi_d_a9_a3_proc_0
      - pi_d_a9_a3_proc_1 >= 0
 c15: 683 pi_p_a3_a0 + 683 pi_p_a3_a5 + 683 pi_p_a3_a4 + 683 pi_d_a3_a0_proc_0
      + 683 pi_d_a3_a1_proc_0 + 683 pi_d_a3_a2_proc_0 + 683 pi_d_a3_a4_proc_0
      + 683 pi_d_a3_a5_proc_0 + 683 pi_d_a3_a8_proc_0 + 683 pi_d_a3_a9_proc_0
      + pi_y1_a3 + pi_y2_a3_proc_0 >= 0
 c16: 866 pi_p_a3_a0 + 866 pi_p_a3_a5 + 866 pi_p_a3_a4 + 866 pi_d_a3_a0_proc_1
      + 866 pi_d_a3_a1_proc_1 + 866 pi_d_a3_a4_proc_1 + 866 pi_d_a3_a6_proc_1
      + 866 pi_d_a3_a7_proc_1 + 866 pi_d_a3_a8_proc_1 + 866 pi_d_a3_a9_proc_1
      + pi_y1_a3 + pi_y2_a3_proc_1 >= 0
 c17: pi_p_a4_a2 - pi_p_a7_a4 - pi_p_a3_a4 - pi_d_a0_a4_proc_2
      - pi_d_a0_a4_proc_0 - pi_d_a0_a4_proc_1 + pi_d_a4_a0_proc_2
      + pi_d_a4_a0_proc_0 + pi_d_a4_a0_proc_1 - pi_d_a1_a4_proc_2
      - pi_d_a1_a4_proc_0 - pi_d_a1_a4_proc_1 + pi_d_a4_a1_proc_2
      + pi_d_a4_a1_proc_0 + pi_d_a4_a1_proc_1 - pi_d_a2_a4_proc_2
      - pi_d_a2_a4_proc_0 + pi_d_a4_a2_proc_2 + pi_d_a4_a2_proc_0
      - pi_d_a3_a4_proc_0 - pi_d_a3_a4_proc_1 + pi_d_a4_a3_proc_0
      + pi_d_a4_a3_proc_1 + pi_d_a4_a5_proc_2 + pi_d_a4_a5_proc_0
      - pi_d_a5_a4_proc_2 - pi_d_a5_a4_proc_0 + pi_d_a4_a6_proc_2
      + pi_d_a4_a6_proc_1 - pi_d_a6_a4_proc_2 - pi_d_a6_a4_proc_1
      + pi_d_a4_a7_proc_2 + pi_d_a4_a7_proc_1 - pi_d_a7_a4_proc_2
      - pi_d_a7_a4_proc_1 + pi_d_a4_a8_proc_2 + pi_d_a4_a8_proc_0
      + pi_d_a4_a8_proc_1 - pi_d_a8_a4_proc_2 - pi_d_a8_a4_proc_0
      - pi_d_a8_a4_proc_1 + pi_d_a4_a9_proc_2 + pi_d_a4_a9_proc_0
      + pi_d_a4_a9_proc_1 - pi_d_a9_a4_proc_2 - pi_d_a9_a4_proc_0
      - pi_d_a9_a4_proc_1 >= 0
 c18: 993 pi_p_a4_a2 + 993 pi_d_a4_a0_proc_0 + 993 pi_d_a4_a1_proc_0
      + 993 pi_d_a4_a2_proc_0 + 993 pi_d_a4_a3_proc_0 + 993 pi_d_a4_a5_proc_0
      + 993 pi_d_a4_a8_proc_0 + 993 pi_d_a4_a9_proc_0 + pi_y1_a4
      + pi_y2_a4_proc_0 >= 0
 c19: 1184 pi_p_a4_a2 + 1184 pi_d_a4_a0_proc_1 + 1184 pi_d_a4_a1_proc_1
      + 1184 pi_d_a4_a3_proc_1 + 1184 pi_d_a4_a6_proc_1 + 1184 pi_d_a4_a7_proc_1
      + 1184 pi_d_a4_a8_proc_1 + 1184 pi_d_a4_a9_proc_1 + pi_y1_a4
      + pi_y2_a4_proc_1 >= 0
 c20: 980 pi_p_a4_a2 + 980 pi_d_a4_a0_proc_2 + 980 pi_d_a4_a1_proc_2
      + 980 pi_d_a4_a2_proc_2 + 980 pi_d_a4_a5_proc_2 + 980 pi_d_a4_a6_proc_2
      + 980 pi_d_a4_a7_proc_2 + 980 pi_d_a4_a8_proc_2 + 980 pi_d_a4_a9_proc_2
      + pi_y1_a4 + pi_y2_a4_proc_2 >= 0
 c21: pi_p_a5_a1 - pi_p_a3_a5 - pi_p_a8_a5 - pi_d_a0_a5_proc_2
      - pi_d_a0_a5_proc_0 + pi_d_a5_a0_proc_2 + pi_d_a5_a0_proc_0
      - pi_d_a1_a5_proc_2 - pi_d_a1_a5_proc_0 + pi_d_a5_a1_proc_2
      + pi_d_a5_a1_proc_0 - pi_d_a2_a5_proc_2 - pi_d_a2_a5_proc_0
      + pi_d_a5_a2_proc_2 + pi_d_a5_a2_proc_0 - pi_d_a3_a5_proc_0
      + pi_d_a5_a3_proc_0 - pi_d_a4_a5_proc_2 - pi_d_a4_a5_proc_0
      + pi_d_a5_a4_proc_2 + pi_d_a5_a4_proc_0 + pi_d_a5_a6_proc_2
      - pi_d_a6_a5_proc_2 + pi_d_a5_a7_proc_2 - pi_d_a7_a5_proc_2
      + pi_d_a5_a8_proc_2 + pi_d_a5_a8_proc_0 - pi_d_a8_a5_proc_2
      - pi_d_a8_a5_proc_0 + pi_d_a5_a9_proc_2 + pi_d_a5_a9_proc_0
      - pi_d_a9_a5_proc_2 - pi_d_a9_a5_proc_0 >= 0
 c22: 788 pi_p_a5_a1 + 788 pi_d_a5_a0_proc_0 + 788 pi_d_a5_a1_proc_0
      + 788 pi_d_a5_a2_proc_0 + 788 pi_d_a5_a3_proc_0 + 788 pi_d_a5_a4_proc_0
      + 788 pi_d_a5_a8_proc_0 + 788 pi_d_a5_a9_proc_0 + pi_y1_a5
      + pi_y2_a5_proc_0 >= 0
 c23: 998 pi_p_a5_a1 + 998 pi_d_a5_a0_proc_2 + 998 pi_d_a5_a1_proc_2
      + 998 pi_d_a5_a2_proc_2 + 998 pi_d_a5_a4_proc_2 + 998 pi_d_a5_a6_proc_2
      + 998 pi_d_a5_a7_proc_2 + 998 pi_d_a5_a8_proc_2 + 998 pi_d_a5_a9_proc_2
      + pi_y1_a5 + pi_y2_a5_proc_2 >= 0
 c24: - pi_p_a2_a6 + pi_p_a6_a2 - pi_p_a0_a6 - pi_d_a0_a6_proc_2
      - pi_d_a0_a6_proc_1 + pi_d_a6_a0_proc_2 + pi_d_a6_a0_proc_1
      - pi_d_a1_a6_proc_2 - pi_d_a1_a6_proc_1 + pi_d_a6_a1_proc_2
      + pi_d_a6_a1_proc_1 - pi_d_a2_a6_proc_2 + pi_d_a6_a2_proc_2
      - pi_d_a3_a6_proc_1 + pi_d_a6_a3_proc_1 - pi_d_a4_a6_proc_2
      - pi_d_a4_a6_proc_1 + pi_d_a6_a4_proc_2 + pi_d_a6_a4_proc_1
      - pi_d_a5_a6_proc_2 + pi_d_a6_a5_proc_2 + pi_d_a6_a7_proc_2
      + pi_d_a6_a7_proc_1 - pi_d_a7_a6_proc_2 - pi_d_a7_a6_proc_1
      + pi_d_a6_a8_proc_2 + pi_d_a6_a8_proc_1 - pi_d_a8_a6_proc_2
      - pi_d_a8_a6_proc_1 + pi_d_a6_a9_proc_2 + pi_d_a6_a9_proc_1
      - pi_d_a9_a6_proc_2 - pi_d_a9_a6_proc_1 >= 0
 c25: 994 pi_p_a6_a2 + 994 pi_d_a6_a0_proc_1 + 994 pi_d_a6_a1_proc_1
      + 994 pi_d_a6_a3_proc_1 + 994 pi_d_a6_a4_proc_1 + 994 pi_d_a6_a7_proc_1
      + 994 pi_d_a6_a8_proc_1 + 994 pi_d_a6_a9_proc_1 + pi_y1_a6
      + pi_y2_a6_proc_1 >= 0
 c26: 803 pi_p_a6_a2 + 803 pi_d_a6_a0_proc_2 + 803 pi_d_a6_a1_proc_2
      + 803 pi_d_a6_a2_proc_2 + 803 pi_d_a6_a4_proc_2 + 803 pi_d_a6_a5_proc_2
      + 803 pi_d_a6_a7_proc_2 + 803 pi_d_a6_a8_proc_2 + 803 pi_d_a6_a9_proc_2
      + pi_y1_a6 + pi_y2_a6_proc_2 >= 0
 c27: pi_p_a7_a4 - pi_p_a9_a7 - pi_p_a0_a7 - pi_d_a0_a7_proc_2
      - pi_d_a0_a7_proc_1 + pi_d_a7_a0_proc_2 + pi_d_a7_a0_proc_1
      - pi_d_a1_a7_proc_2 - pi_d_a1_a7_proc_1 + pi_d_a7_a1_proc_2
      + pi_d_a7_a1_proc_1 - pi_d_a2_a7_proc_2 + pi_d_a7_a2_proc_2
      - pi_d_a3_a7_proc_1 + pi_d_a7_a3_proc_1 - pi_d_a4_a7_proc_2
      - pi_d_a4_a7_proc_1 + pi_d_a7_a4_proc_2 + pi_d_a7_a4_proc_1
      - pi_d_a5_a7_proc_2 + pi_d_a7_a5_proc_2 - pi_d_a6_a7_proc_2
      - pi_d_a6_a7_proc_1 + pi_d_a7_a6_proc_2 + pi_d_a7_a6_proc_1
      + pi_d_a7_a8_proc_2 + pi_d_a7_a8_proc_1 - pi_d_a8_a7_proc_2
      - pi_d_a8_a7_proc_1 + pi_d_a7_a9_proc_2 + pi_d_a7_a9_proc_1
      - pi_d_a9_a7_proc_2 - pi_d_a9_a7_proc_1 >= 0
 c28: 882 pi_p_a7_a4 + 882 pi_d_a7_a0_proc_1 + 882 pi_d_a7_a1_proc_1
      + 882 pi_d_a7_a3_proc_1 + 882 pi_d_a7_a4_proc_1 + 882 pi_d_a7_a6_proc_1
      + 882 pi_d_a7_a8_proc_1 + 882 pi_d_a7_a9_proc_1 + pi_y1_a7
      + pi_y2_a7_proc_1 >= 0
 c29: 1056 pi_p_a7_a4 + 1056 pi_d_a7_a0_proc_2 + 1056 pi_d_a7_a1_proc_2
      + 1056 pi_d_a7_a2_proc_2 + 1056 pi_d_a7_a4_proc_2 + 1056 pi_d_a7_a5_proc_2
      + 1056 pi_d_a7_a6_proc_2 + 1056 pi_d_a7_a8_proc_2 + 1056 pi_d_a7_a9_proc_2
      + pi_y1_a7 + pi_y2_a7_proc_2 >= 0
 c30: pi_p_a8_a3 + pi_p_a8_a5 + pi_p_a8_a9 - pi_p_a9_a8 - pi_d_a0_a8_proc_2
      - pi_d_a0_a8_proc_0 - pi_d_a0_a8_proc_1 + pi_d_a8_a0_proc_2
      + pi_d_a8_a0_proc_0 + pi_d_a8_a0_proc_1 - pi_d_a1_a8_proc_2
      - pi_d_a1_a8_proc_0 - pi_d_a1_a8_proc_1 + pi_d_a8_a1_proc_2
      + pi_d_a8_a1_proc_0 + pi_d_a8_a1_proc_1 - pi_d_a2_a8_proc_2
      - pi_d_a2_a8_proc_0 + pi_d_a8_a2_proc_2 + pi_d_a8_a2_proc_0
      - pi_d_a3_a8_proc_0 - pi_d_a3_a8_proc_1 + pi_d_a8_a3_proc_0
      + pi_d_a8_a3_proc_1 - pi_d_a4_a8_proc_2 - pi_d_a4_a8_proc_0
      - pi_d_a4_a8_proc_1 + pi_d_a8_a4_proc_2 + pi_d_a8_a4_proc_0
      + pi_d_a8_a4_proc_1 - pi_d_a5_a8_proc_2 - pi_d_a5_a8_proc_0
      + pi_d_a8_a5_proc_2 + pi_d_a8_a5_proc_0 - pi_d_a6_a8_proc_2
      - pi_d_a6_a8_proc_1 + pi_d_a8_a6_proc_2 + pi_d_a8_a6_proc_1
      - pi_d_a7_a8_proc_2 - pi_d_a7_a8_proc_1 + pi_d_a8_a7_proc_2
      + pi_d_a8_a7_proc_1 + pi_d_a8_a9_proc_2 + pi_d_a8_a9_proc_0
      + pi_d_a8_a9_proc_1 - pi_d_a9_a8_proc_2 - pi_d_a9_a8_proc_0
      - pi_d_a9_a8_proc_1 >= 0
 c31: 992 pi_p_a8_a3 + 992 pi_p_a8_a5 + 992 pi_p_a8_a9 + 992 pi_d_a8_a0_proc_0
      + 992 pi_d_a8_a1_proc_0 + 992 pi_d_a8_a2_proc_0 + 992 pi_d_a8_a3_proc_0
      + 992 pi_d_a8_a4_proc_0 + 992 pi_d_a8_a5_proc_0 + 992 pi_d_a8_a9_proc_0
      + pi_y1_a8 + pi_y2_a8_proc_0 >= 0
 c32: 1271 pi_p_a8_a3 + 1271 pi_p_a8_a5 + 1271 pi_p_a8_a9
      + 1271 pi_d_a8_a0_proc_1 + 1271 pi_d_a8_a1_proc_1 + 1271 pi_d_a8_a3_proc_1
      + 1271 pi_d_a8_a4_proc_1 + 1271 pi_d_a8_a6_proc_1 + 1271 pi_d_a8_a7_proc_1
      + 1271 pi_d_a8_a9_proc_1 + pi_y1_a8 + pi_y2_a8_proc_1 >= 0
 c33: 974 pi_p_a8_a3 + 974 pi_p_a8_a5 + 974 pi_p_a8_a9 + 974 pi_d_a8_a0_proc_2
      + 974 pi_d_a8_a1_proc_2 + 974 pi_d_a8_a2_proc_2 + 974 pi_d_a8_a4_proc_2
      + 974 pi_d_a8_a5_proc_2 + 974 pi_d_a8_a6_proc_2 + 974 pi_d_a8_a7_proc_2
      + 974 pi_d_a8_a9_proc_2 + pi_y1_a8 + pi_y2_a8_proc_2 >= 0
 c34: pi_p_a9_a7 - pi_p_a8_a9 + pi_p_a9_a8 - pi_d_a0_a9_proc_2
      - pi_d_a0_a9_proc_0 - pi_d_a0_a9_proc_1 + pi_d_a9_a0_proc_2
      + pi_d_a9_a0_proc_0 + pi_d_a9_a0_proc_1 - pi_d_a1_a9_proc_2
      - pi_d_a1_a9_proc_0 - pi_d_a1_a9_proc_1 + pi_d_a9_a1_proc_2
      + pi_d_a9_a1_proc_0 + pi_d_a9_a1_proc_1 - pi_d_a2_a9_proc_2
      - pi_d_a2_a9_proc_0 + pi_d_a9_a2_proc_2 + pi_d_a9_a2_proc_0
      - pi_d_a3_a9_proc_0 - pi_d_a3_a9_proc_1 + pi_d_a9_a3_proc_0
      + pi_d_a9_a3_proc_1 - pi_d_a4_a9_proc_2 - pi_d_a4_a9_proc_0
      - pi_d_a4_a9_proc_1 + pi_d_a9_a4_proc_2 + pi_d_a9_a4_proc_0
      + pi_d_a9_a4_proc_1 - pi_d_a5_a9_proc_2 - pi_d_a5_a9_proc_0
      + pi_d_a9_a5_proc_2 + pi_d_a9_a5_proc_0 - pi_d_a6_a9_proc_2
      - pi_d_a6_a9_proc_1 + pi_d_a9_a6_proc_2 + pi_d_a9_a6_proc_1
      - pi_d_a7_a9_proc_2 - pi_d_a7_a9_proc_1 + pi_d_a9_a7_proc_2
      + pi_d_a9_a7_proc_1 - pi_d_a8_a9_proc_2 - pi_d_a8_a9_proc_0
      - pi_d_a8_a9_proc_1 + pi_d_a9_a8_proc_2 + pi_d_a9_a8_proc_0
      + pi_d_a9_a8_proc_1 >= 0
 c35: 1162 pi_p_a9_a7 + 1162 pi_p_a9_a8 + 1162 pi_d_a9_a0_proc_0
      + 1162 pi_d_a9_a1_proc_0 + 1162 pi_d_a9_a2_proc_0 + 1162 pi_d_a9_a3_proc_0
      + 1162 pi_d_a9_a4_proc_0 + 1162 pi_d_a9_a5_proc_0 + 1162 pi_d_a9_a8_proc_0
      + pi_y1_a9 + pi_y2_a9_proc_0 >= 0
 c36: 1195 pi_p_a9_a7 + 1195 pi_p_a9_a8 + 1195 pi_d_a9_a0_proc_1
      + 1195 pi_d_a9_a1_proc_1 + 1195 pi_d_a9_a3_proc_1 + 1195 pi_d_a9_a4_proc_1
      + 1195 pi_d_a9_a6_proc_1 + 1195 pi_d_a9_a7_proc_1 + 1195 pi_d_a9_a8_proc_1
      + pi_y1_a9 + pi_y2_a9_proc_1 >= 0
 c37: 1040 pi_p_a9_a7 + 1040 pi_p_a9_a8 + 1040 pi_d_a9_a0_proc_2
      + 1040 pi_d_a9_a1_proc_2 + 1040 pi_d_a9_a2_proc_2 + 1040 pi_d_a9_a4_proc_2
      + 1040 pi_d_a9_a5_proc_2 + 1040 pi_d_a9_a6_proc_2 + 1040 pi_d_a9_a7_proc_2
      + 1040 pi_d_a9_a8_proc_2 + pi_y1_a9 + pi_y2_a9_proc_2 >= 0

Bounds
       pi_y1_a0 Free
       pi_y1_a1 Free
       pi_y1_a2 Free
       pi_y1_a3 Free
       pi_y1_a4 Free
       pi_y1_a5 Free
       pi_y1_a6 Free
       pi_y1_a7 Free
       pi_y1_a8 Free
       pi_y1_a9 Free
End
