benchmark/results/graph__10-1000-0.10-03_2/graph__10-1000-0.10-03_2_QuintonOs_Benders_aux.txt
solution for: Quinton Bounded Benders_auxiliary_sub
objective: 0.000258465
status: OPTIMAL_SOLUTION(2)
pi_p_a1_a0=0.000
pi_p_a2_a1=0.000
pi_p_a4_a2=0.000
pi_p_a7_a4=0.000
pi_p_a0_a7=0.000
pi_y1_a0=-0.197
pi_y1_a1=-0.193
pi_y1_a2=-0.129
pi_y1_a4=-0.253
pi_y1_a7=-0.228
